10
50
0 360000
10500 17700
9960 17160
9600 16800
21960 29160
21780 28980
18000 25200
11580 18780
2760 9960
10440 17640
5940 13140
19740 26940
11760 18960
5820 13020
17640 24840
27120 34320
13620 20820
21840 29040
27660 34860
3600 10800
14100 21300
6780 13980
4980 12180
22380 29580
26280 33480
2880 10080
12600 19800
18840 26040
14940 22140
23760 30960
25920 33120
18240 25440
21480 28680
26100 33300
17820 25020
24240 31440
7680 14880
3960 11160
22260 29460
1680 8880
23580 30780
3660 10860
3300 10500
9900 17100
8040 15240
1560 8760
19320 26520
26940 34140
28680 35880
19800 27000
19800 27000